
Gurobi 6.5.2 (win64) logging started 07/23/16 02:38:21


Gurobi 6.5.2 (win64) logging started 07/23/16 02:38:21

Optimize a model with 5358 rows, 918 columns and 12459 nonzeros
Coefficient statistics:
  Matrix range    [4e-06, 1e+03]
  Objective range [1e+00, 1e+00]
  Bounds range    [1e+00, 1e+00]
  RHS range       [1e+00, 1e+03]
Found heuristic solution: objective 2013.45
Presolve removed 5331 rows and 890 columns
Presolve time: 0.00s
Presolved: 27 rows, 28 columns, 83 nonzeros
Found heuristic solution: objective 235.8316625
Variable types: 28 continuous, 0 integer (0 binary)

Root relaxation: objective 1.688271e+02, 19 iterations, 0.00 seconds

    Nodes    |    Current Node    |     Objective Bounds      |     Work
 Expl Unexpl |  Obj  Depth IntInf | Incumbent    BestBd   Gap | It/Node Time

*    0     0               0     168.8271430  168.82714  0.00%     -    0s

Explored 0 nodes (19 simplex iterations) in 0.01 seconds
Thread count was 8 (of 8 available processors)

Optimal solution found (tolerance 1.00e-04)
Best objective 1.688271429700e+02, best bound 1.688271429700e+02, gap 0.0%

Wrote requested result file 'H2\instance9\\Results9EC_Sol6.lp'

